proyfinal/src/viki/013/experimentInOfficeAgust.take6.output/14d9a457-b4d3-4ab1-ac07-4f7df7603de2.als.out
Reading from standard input... Use '--help' for help.
============================[ Problem Statistics ]=============================
|                                                                             |
|  Number of variables:         87638                                         |
|  Number of clauses:          161767                                         |
|  Parse time:                   0.03 s                                       |
|                                                                             |
============================[ Search Statistics ]==============================
| Conflicts |          ORIGINAL         |          LEARNT          | Progress |
|           |    Vars  Clauses Literals |    Limit  Clauses Lit/Cl |          |
===============================================================================
|       100 |   62391   105178   262838 |    38565      100     10 | 28.808 % |
|       250 |   62391   105178   262838 |    42421      250     53 | 28.808 % |
|       475 |   62391   105178   262838 |    46663      475     72 | 28.808 % |
|       812 |   62391   105178   262838 |    51330      812     84 | 28.808 % |
|      1318 |   62390   105134   262748 |    56463     1317     84 | 28.809 % |
|      2077 |   62390   105134   262748 |    62109     2076     86 | 28.809 % |
|      3216 |   62390   105134   262748 |    68320     3215     96 | 28.809 % |
|      4924 |   49192    66836   168274 |    75152     4753     96 | 43.869 % |
|      7486 |   49005    66302   166977 |    82668     7283     79 | 44.082 % |
|     11330 |   48736    64961   163924 |    90934     9570     67 | 44.389 % |
===============================================================================
restarts              : 52
conflicts             : 11843          (7900 /sec)
decisions             : 40555          (0.00 % random) (27052 /sec)
propagations          : 16685538       (11130133 /sec)
conflict literals     : 745019         (38.04 % deleted)
Memory used           : 30.60 MB
CPU time              : 1.49913 s

UNSATISFIABLE
